(set-option :produce-models true)
(set-logic QF_UF)
(declare-fun p52() Bool)
(declare-fun p45() Bool)
(declare-fun p6() Bool)
(declare-fun p35() Bool)
(declare-fun p36() Bool)
(declare-fun p56() Bool)
(declare-fun p29() Bool)
(declare-fun p53() Bool)
(declare-fun p49() Bool)
(declare-fun p17() Bool)
(declare-fun p48() Bool)
(declare-fun p47() Bool)
(declare-fun p43() Bool)
(declare-fun p28() Bool)
(declare-fun p33() Bool)
(declare-fun p31() Bool)
(declare-fun p51() Bool)
(declare-fun p22() Bool)
(declare-fun p39() Bool)
(declare-fun p37() Bool)
(declare-fun p9() Bool)
(declare-fun p3() Bool)
(declare-fun p5() Bool)
(declare-fun p38() Bool)
(declare-fun p42() Bool)
(declare-fun p14() Bool)
(declare-fun p57() Bool)
(declare-fun p13() Bool)
(declare-fun p12() Bool)
(declare-fun p1() Bool)
(declare-fun p55() Bool)
(declare-fun p54() Bool)
(declare-fun p30() Bool)
(declare-fun p20() Bool)
(declare-fun p24() Bool)
(declare-fun p46() Bool)
(declare-fun p8() Bool)
(declare-fun p41() Bool)
(declare-fun p10() Bool)
(declare-fun p11() Bool)
(declare-fun p19() Bool)
(declare-fun p18() Bool)
(declare-fun p34() Bool)
(declare-fun p59() Bool)
(declare-fun p58() Bool)
(declare-fun p7() Bool)
(declare-fun p27() Bool)
(declare-fun p32() Bool)
(declare-fun p16() Bool)
(declare-fun p0() Bool)
(declare-fun p50() Bool)
(declare-fun p26() Bool)
(declare-fun p44() Bool)
(declare-fun p25() Bool)
(declare-fun p2() Bool)
(declare-fun p40() Bool)
(declare-fun p4() Bool)
(declare-fun p23() Bool)
(declare-fun p15() Bool)
(declare-fun p21() Bool)
(assert
(and (or p52 p45 (not p6)) (or p35 p36 p6) (or (not p56) p29 p53) (or (not p49) (not p17) (not p48)) (or (not p35) p47 p43) (or (not p28) p33 (not p52)) (or p31 (not p51) p22) (or (not p39) (not p37) p31) (or p9 (not p56) (not p3)) (or p5 p38 p42) (or p14 (not p6) p57) (or (not p43) (not p29) (not p13)) (or p45 p12 (not p1)) (or (not p49) p17 (not p55)) (or (not p54) (not p30) p20) (or p24 (not p43) (not p38)) (or p28 p52 p46) (or (not p43) (not p8) p5) (or (not p53) (not p13) (not p57)) (or p5 (not p41) (not p10)) (or (not p11) p41 (not p36)) (or (not p19) (not p55) (not p56)) (or p38 (not p18) p34) (or p59 (not p31) p38) (or (not p58) (not p22) (not p7)) (or (not p11) p45 p10) (or p35 p27 (not p37)) (or (not p32) (not p22) (not p6)) (or (not p45) (not p16) (not p17)) (or p56 (not p0) (not p38)) (or p9 (not p3) p10) (or p38 p28 (not p36)) (or (not p50) p14 (not p53)) (or (not p52) (not p22) (not p45)) (or p43 (not p48) p47) (or p11 (not p59) (not p47)) (or (not p58) p26 (not p56)) (or (not p34) (not p27) (not p7)) (or p44 (not p51) (not p8)) (or p57 p30 p25) (or (not p33) p59 (not p55)) (or p14 (not p2) (not p0)) (or p7 (not p41) p32) (or p22 p56 p31) (or (not p13) p39 (not p40)) (or (not p16) (not p17) p30) (or (not p26) (not p22) (not p49)) (or p29 (not p13) (not p10)) (or p38 p48 (not p28)) (or p51 p36 p7) (or (not p31) (not p58) (not p52)) (or (not p28) p43 p40) (or p5 p3 (not p11)) (or p29 (not p51) p4) (or p36 p58 (not p57)) (or (not p37) p53 (not p10)) (or p59 p10 p13) (or (not p29) (not p22) p26) (or (not p48) p46 (not p54)) (or (not p32) p43 p34) (or (not p2) (not p9) (not p4)) (or (not p26) p30 p53) (or p19 (not p33) p37) (or p43 p17 p46) (or p39 p0 p26) (or p1 p10 (not p10)) (or (not p42) (not p54) p41) (or p29 p7 (not p58)) (or (not p26) p40 p24) (or (not p36) (not p32) p22) (or (not p37) (not p14) (not p23)) (or p14 p19 (not p15)) (or (not p19) (not p47) p25) (or p36 (not p4) (not p8)) (or (not p28) (not p22) (not p39)) (or p21 p55 p44) (or (not p41) (not p40) (not p42)) (or p20 p10 p16) (or p25 p56 p58) (or p4 (not p34) (not p46)) (or (not p46) p24 (not p47)) (or p55 p1 (not p24)) (or (not p12) p42 p17) (or (not p36) p8 (not p33)) (or p19 (not p16) (not p36)) (or (not p49) (not p47) p49) (or (not p18) (not p8) (not p11)) (or p17 (not p5) p21) (or p13 (not p13) (not p49)) (or (not p20) (not p31) (not p18)) (or p32 (not p32) (not p32)) (or (not p37) (not p34) (not p32)) (or p53 (not p3) (not p12)) (or p57 (not p46) (not p29)) (or p37 p3 (not p24)) (or p24 (not p5) p57) (or (not p4) p45 (not p26)) (or p13 (not p22) p26) (or p24 (not p49) p48) (or (not p36) (not p13) (not p35)) (or (not p4) (not p13) p1) (or (not p49) p7 (not p12)) (or p9 (not p49) (not p19)) (or p19 (not p34) p41) (or p4 (not p48) (not p4)) (or p38 p16 p11) (or p42 (not p56) p36) (or p59 (not p6) (not p13)) (or p58 p57 p7) (or p7 p57 (not p13)) (or (not p33) p29 (not p36)) (or p11 (not p35) p28) (or (not p32) (not p25) (not p3)) (or (not p34) p42 p10) (or (not p5) p39 p40) (or p0 p49 p8) (or (not p24) (not p10) (not p3)) (or p22 (not p31) (not p43)) (or (not p50) (not p47) (not p17)) (or (not p26) (not p33) p38) (or p13 (not p36) p6) (or p43 (not p12) p59) (or p55 p44 p36) (or p27 p49 (not p31)) (or p55 p13 (not p17)) (or (not p35) (not p2) (not p57)) (or p7 (not p5) (not p44)) (or p51 (not p15) p14) (or (not p10) (not p4) p32) (or p33 p36 (not p30)) (or p7 p30 (not p39)) (or p23 p44 p40) (or p23 (not p34) p53) (or p36 (not p44) p26) (or p28 p39 p54) (or p56 (not p26) p51) (or p48 (not p54) (not p32)) (or (not p6) p5 p58) (or (not p52) (not p19) p57) (or p16 (not p2) (not p18)) (or (not p56) p44 (not p3)) (or (not p52) (not p17) p40) (or (not p48) (not p20) (not p58)) (or (not p44) (not p48) p6) (or p8 p9 p26) (or (not p38) p0 (not p39)) (or (not p17) p56 (not p29)) (or (not p17) p50 p38) (or (not p8) (not p45) p23) (or (not p52) (not p28) p35) (or p36 (not p44) p31) (or p33 (not p44) p29) (or p49 p1 (not p5)) (or p42 (not p5) p6) (or p32 (not p56) (not p13)) (or (not p34) (not p21) (not p1)) (or p27 (not p24) (not p3)) (or (not p18) (not p13) (not p2)) (or p57 p40 (not p0)) (or p2 p47 (not p8)) (or (not p35) (not p9) p44) (or (not p28) p33 p46) (or p16 p10 p5) (or (not p6) (not p21) p38) (or p56 (not p35) p1) (or (not p15) (not p39) p51) (or (not p26) p41 p2) (or (not p21) p58 (not p26)) (or p51 (not p14) (not p2)) (or p48 (not p40) (not p51)) (or p48 p2 (not p13)) (or (not p49) (not p42) p55) (or (not p21) p46 (not p18)) (or (not p19) p38 (not p34)) (or p33 p42 p6) (or p16 (not p6) p39) (or p29 (not p14) p50) (or (not p19) (not p39) p2) (or p42 p53 p17) (or (not p37) (not p26) p35) (or p40 p35 (not p42)) (or p30 p29 (not p33)) (or (not p18) p25 (not p52)) (or (not p22) (not p17) p14) (or (not p22) (not p42) p33) (or (not p38) (not p14) (not p45)) (or p0 (not p50) p34) (or (not p27) p5 p4) (or (not p17) p55 (not p30)) (or (not p4) (not p40) p27) (or (not p52) p35 (not p34)) (or (not p18) p16 (not p39)) (or (not p40) (not p16) p3) (or p14 p25 (not p22)) (or p11 (not p55) p57) (or (not p41) (not p39) (not p25)) (or p58 p20 (not p37)) (or p57 p1 p24) (or (not p20) (not p50) (not p15)) (or (not p41) (not p0) (not p57)) (or (not p13) (not p34) p34) (or (not p5) p29 p4) (or p47 p58 (not p20)) (or p9 p27 p3) (or (not p44) (not p10) (not p56)) (or (not p16) p9 (not p14)) (or p8 (not p45) p22) (or (not p31) (not p51) (not p39)) (or (not p49) (not p35) (not p31)) (or (not p30) p47 (not p22)) (or (not p10) (not p53) (not p46)) (or p31 p25 p23) (or p15 (not p33) (not p10)) (or p2 p6 (not p40)) (or (not p41) p9 p37) (or (not p25) (not p54) p1) (or p0 (not p53) p43) (or (not p3) p50 p38) (or (not p27) (not p24) (not p6)) (or p1 (not p38) p24) (or p6 (not p32) (not p30)) (or p26 p53 (not p37)) (or p50 (not p10) p3) (or (not p42) p4 p35) (or (not p9) (not p10) (not p20)) (or p53 (not p24) p22) (or p7 (not p25) p56) (or (not p33) p39 p49) (or (not p17) (not p4) p9) (or p6 p45 p48) (or (not p52) (not p31) p43) (or (not p5) (not p23) (not p32)) (or p58 (not p40) p42) (or p56 (not p0) (not p59)) (or p36 p44 p58) (or p40 (not p9) (not p35)) (or (not p58) (not p45) (not p53)) (or (not p39) (not p45) p24) (or (not p25) (not p28) p34) (or p40 p0 (not p15)) (or p58 (not p0) (not p20)) (or p30 (not p51) (not p33)) (or p41 p17 (not p46)) (or p51 p44 (not p1)) (or (not p30) (not p38) (not p21)) (or p55 (not p24) p25) (or (not p26) p37 p54) (or (not p14) (not p10) p27) (or (not p38) p12 p45) (or p12 p38 (not p32)) (or (not p56) p16 (not p50)) (or p36 p47 p23))
)
(check-sat)
(get-model)
